100
100
100
100
99
99
98
98
97
97
96
96
96
95
94
94
92
91
91
90
90
90
88
87
85
85
84
83
83
81
80
79
79
78
76
76
76
75
74
74
74
73
71
70
67
67
67
66
66
66
64
64
64
64
63
63
61
59
59
58
58
58
56
56
56
54
53
53
52
51
50
50
49
48
48
48
48
46
45
44
41
40
40
40
39
39
37
37
36
36
36
35
35
34
33
33
33
33
32
31
31
30
